NURSE = { A, B, C, D, E, F, G, H, I, J, K, L };

nday = 27;
%                     1      2      3      4      5      6      7      8      9     10     11     12     13     14
rostered_off = [|  true, false, false, false, false, false, false,  true, false, false, false, false, false, false, false, false, false, false, false, false,  true, false, false, false, false, false, false
                | false, false,  true, false, false, false, false, false, false,  true, false, false, false, false, false,  true, false, false, false, false, false, false,  true, false, false, false, false
                | false, false, false,  true, false, false, false, false, false, false,  true, false, false, false, false, false,  true, false, false, false, false, false, false,  true, false, false, false
                | false, false, false, false,  true, false, false, false, false, false, false,  true, false, false, false, false, false,  true, false, false, false, false, false, false,  true, false, false
                | false, false, false, false, false,  true, false, false, false, false, false, false,  true, false, false, false, false, false,  true, false, false, false, false, false, false,  true, false
                |  true, false, false, false, false, false, false,  true, false, false, false, false, false,  true, false, false, false, false, false, false,  true, false, false, false, false, false,  true
                | false, false,  true, false,  true, false, false, false, false,  true, false, false, false, false, false,  true, false,  true, false, false, false, false,  true, false, false, false, false
                | false, false, false,  true, false, false, false, false, false, false,  true,  true, false, false, false, false,  true, false, false, false, false, false, false,  true,  true, false, false
                | false, false, false, false,  true, false, false,  true, false, false, false,  true, false, false, false, false, false,  true, false, false,  true, false, false, false,  true, false, false
                |  true, false, false, false, false,  true, false, false, false, false, false, false,  true, false, false, false, false, false,  true, false, false, false, false, false, false,  true, false
                |  true, false, false, false, false, false, false, false, false, false, false, false, false,  true, false, false, false, false, false, false, false, false, false, false, false, false,  true
                | false,  true, false, false, false, false, false, false, false, false, false, false,  true, false,  true, false, false, false, false, false, false, false, false, false, false,  true,  true
                |];
                
maxweek = 5;
maxnightfort = 4;
minfort = 8; 
minshift =  [| 1, 3, 1, 1, 2, 2, 1, 1, 2, 0, 1, 2, 2, 1, 3, 1, 1, 2, 2, 1, 1, 2, 1, 0, 2, 2, 1 
             | 2, 2, 0, 2, 4, 3, 2, 2, 6, 0, 2, 0, 3, 2, 2, 0, 2, 4, 3, 2, 2, 6, 2, 0, 0, 3, 2
             | 1, 0, 3, 2, 1, 2, 1, 3, 1, 0, 2, 1, 2, 1, 0, 3, 2, 1, 2, 1, 3, 1, 1, 0, 1, 2, 1
             | 2, 2, 2, 2, 0, 2, 2, 2, 2, 0, 3, 4, 0, 2, 2, 2, 2, 0, 2, 2, 2, 2, 2, 0, 4, 0, 2
             | 0, 0, 0, 0, 0, 0, 0, 0, 0, 0, 0, 0, 0, 0, 0, 0, 0, 0, 0, 0, 0, 0, 0, 0, 0, 0, 0
             |];               

shift_cost = [ 1, 1, 1, 2, 2, 3, 3, 3, 4, 4, 10, 10 ];

WARD = { GEN, MAN, '  .' };
dummy = '  .';
minward =   [| 2, 8, 2, 5, 0, 0, 2, 2, 5, 0, 5, 0, 0, 2, 2, 8, 2, 5, 0, 0, 2, 2, 5, 0, 5, 0, 0  
             | 1, 1, 1, 1, 6, 1, 1, 1, 4, 0, 1, 8, 1, 1, 1, 1, 1, 1, 6, 1, 1, 1, 4, 0, 1, 8, 1
             | 0, 0, 0, 0, 0, 0, 0, 0, 0, 0, 0, 0, 0, 0, 0, 0, 0, 0, 0, 0, 0, 0, 0, 0, 0, 0, 0
             |];
maxward = 3;    

SKILL = { SENIOR};  
senior = SENIOR;
skill = [ {SENIOR} | n in NURSE ];
required = [ {}, {}, {} ];    
                 
